\ Model vrptw
\ LP format - for model browsing. Use MPS format to capture full model detail.
Minimize
  0 x[1,1,0] + 0 x[1,1,1] + 2 x[1,2,0] + 2 x[1,2,1]
   + 3.605551275463989 x[1,3,0] + 3.605551275463989 x[1,3,1] + 3 x[1,4,0]
   + 3 x[1,4,1] + 4.242640687119285 x[1,5,0] + 4.242640687119285 x[1,5,1]
   + 2 x[2,1,0] + 2 x[2,1,1] + 0 x[2,2,0] + 0 x[2,2,1] + 5 x[2,3,0]
   + 5 x[2,3,1] + 3.605551275463989 x[2,4,0] + 3.605551275463989 x[2,4,1]
   + 5.830951894845301 x[2,5,0] + 5.830951894845301 x[2,5,1]
   + 3.605551275463989 x[3,1,0] + 3.605551275463989 x[3,1,1] + 5 x[3,2,0]
   + 5 x[3,2,1] + 0 x[3,3,0] + 0 x[3,3,1] + 2 x[3,4,0] + 2 x[3,4,1]
   + x[3,5,0] + x[3,5,1] + 3 x[4,1,0] + 3 x[4,1,1]
   + 3.605551275463989 x[4,2,0] + 3.605551275463989 x[4,2,1] + 2 x[4,3,0]
   + 2 x[4,3,1] + 0 x[4,4,0] + 0 x[4,4,1] + 3 x[4,5,0] + 3 x[4,5,1]
   + 4.242640687119285 x[5,1,0] + 4.242640687119285 x[5,1,1]
   + 5.830951894845301 x[5,2,0] + 5.830951894845301 x[5,2,1] + x[5,3,0]
   + x[5,3,1] + 3 x[5,4,0] + 3 x[5,4,1] + 0 x[5,5,0] + 0 x[5,5,1]
   + 0 x[6,0,0] + 0 x[6,0,1] + 0 x[6,6,0] + 0 x[6,6,1] + 0 s[0,0]
   + 0 s[0,1] + 0 s[1,0] + 0 s[1,1] + 0 s[2,0] + 0 s[2,1] + 0 s[3,0]
   + 0 s[3,1] + 0 s[4,0] + 0 s[4,1] + 0 s[5,0] + 0 s[5,1] + 0 s[6,0]
   + 0 s[6,1]
Subject To
 R0: x[1,0,0] + x[1,0,1] + x[1,2,0] + x[1,2,1] + x[1,3,0] + x[1,3,1]
   + x[1,4,0] + x[1,4,1] + x[1,5,0] + x[1,5,1] + x[1,6,0] + x[1,6,1] = 1
 R1: x[2,0,0] + x[2,0,1] + x[2,1,0] + x[2,1,1] + x[2,3,0] + x[2,3,1]
   + x[2,4,0] + x[2,4,1] + x[2,5,0] + x[2,5,1] + x[2,6,0] + x[2,6,1] = 1
 R2: x[3,0,0] + x[3,0,1] + x[3,1,0] + x[3,1,1] + x[3,2,0] + x[3,2,1]
   + x[3,4,0] + x[3,4,1] + x[3,5,0] + x[3,5,1] + x[3,6,0] + x[3,6,1] = 1
 R3: x[4,0,0] + x[4,0,1] + x[4,1,0] + x[4,1,1] + x[4,2,0] + x[4,2,1]
   + x[4,3,0] + x[4,3,1] + x[4,5,0] + x[4,5,1] + x[4,6,0] + x[4,6,1] = 1
 R4: x[5,0,0] + x[5,0,1] + x[5,1,0] + x[5,1,1] + x[5,2,0] + x[5,2,1]
   + x[5,3,0] + x[5,3,1] + x[5,4,0] + x[5,4,1] + x[5,6,0] + x[5,6,1] = 1
 R5: 10 x[1,0,0] + 10 x[1,2,0] + 10 x[1,3,0] + 10 x[1,4,0] + 10 x[1,5,0]
   + 10 x[1,6,0] + 30 x[2,0,0] + 30 x[2,1,0] + 30 x[2,3,0] + 30 x[2,4,0]
   + 30 x[2,5,0] + 30 x[2,6,0] + 10 x[3,0,0] + 10 x[3,1,0] + 10 x[3,2,0]
   + 10 x[3,4,0] + 10 x[3,5,0] + 10 x[3,6,0] + 10 x[4,0,0] + 10 x[4,1,0]
   + 10 x[4,2,0] + 10 x[4,3,0] + 10 x[4,5,0] + 10 x[4,6,0] + 10 x[5,0,0]
   + 10 x[5,1,0] + 10 x[5,2,0] + 10 x[5,3,0] + 10 x[5,4,0] + 10 x[5,6,0]
   <= 200
 R6: 10 x[1,0,1] + 10 x[1,2,1] + 10 x[1,3,1] + 10 x[1,4,1] + 10 x[1,5,1]
   + 10 x[1,6,1] + 30 x[2,0,1] + 30 x[2,1,1] + 30 x[2,3,1] + 30 x[2,4,1]
   + 30 x[2,5,1] + 30 x[2,6,1] + 10 x[3,0,1] + 10 x[3,1,1] + 10 x[3,2,1]
   + 10 x[3,4,1] + 10 x[3,5,1] + 10 x[3,6,1] + 10 x[4,0,1] + 10 x[4,1,1]
   + 10 x[4,2,1] + 10 x[4,3,1] + 10 x[4,5,1] + 10 x[4,6,1] + 10 x[5,0,1]
   + 10 x[5,1,1] + 10 x[5,2,1] + 10 x[5,3,1] + 10 x[5,4,1] + 10 x[5,6,1]
   <= 200
 R7: x[0,0,0] + x[0,1,0] + x[0,2,0] + x[0,3,0] + x[0,4,0] + x[0,5,0]
   + x[0,6,0] = 1
 R8: x[0,0,1] + x[0,1,1] + x[0,2,1] + x[0,3,1] + x[0,4,1] + x[0,5,1]
   + x[0,6,1] = 1
 R9: 6 x[0,1,0] - 6 x[1,0,0] - 6 x[1,2,0] - 6 x[1,3,0] - 6 x[1,4,0]
   - 6 x[1,5,0] - 6 x[1,6,0] + 6 x[2,1,0] + 6 x[3,1,0] + 6 x[4,1,0]
   + 6 x[5,1,0] + 6 x[6,1,0] = 0
 R10: 6 x[0,1,1] - 6 x[1,0,1] - 6 x[1,2,1] - 6 x[1,3,1] - 6 x[1,4,1]
   - 6 x[1,5,1] - 6 x[1,6,1] + 6 x[2,1,1] + 6 x[3,1,1] + 6 x[4,1,1]
   + 6 x[5,1,1] + 6 x[6,1,1] = 0
 R11: 6 x[0,2,0] + 6 x[1,2,0] - 6 x[2,0,0] - 6 x[2,1,0] - 6 x[2,3,0]
   - 6 x[2,4,0] - 6 x[2,5,0] - 6 x[2,6,0] + 6 x[3,2,0] + 6 x[4,2,0]
   + 6 x[5,2,0] + 6 x[6,2,0] = 0
 R12: 6 x[0,2,1] + 6 x[1,2,1] - 6 x[2,0,1] - 6 x[2,1,1] - 6 x[2,3,1]
   - 6 x[2,4,1] - 6 x[2,5,1] - 6 x[2,6,1] + 6 x[3,2,1] + 6 x[4,2,1]
   + 6 x[5,2,1] + 6 x[6,2,1] = 0
 R13: 6 x[0,3,0] + 6 x[1,3,0] + 6 x[2,3,0] - 6 x[3,0,0] - 6 x[3,1,0]
   - 6 x[3,2,0] - 6 x[3,4,0] - 6 x[3,5,0] - 6 x[3,6,0] + 6 x[4,3,0]
   + 6 x[5,3,0] + 6 x[6,3,0] = 0
 R14: 6 x[0,3,1] + 6 x[1,3,1] + 6 x[2,3,1] - 6 x[3,0,1] - 6 x[3,1,1]
   - 6 x[3,2,1] - 6 x[3,4,1] - 6 x[3,5,1] - 6 x[3,6,1] + 6 x[4,3,1]
   + 6 x[5,3,1] + 6 x[6,3,1] = 0
 R15: 6 x[0,4,0] + 6 x[1,4,0] + 6 x[2,4,0] + 6 x[3,4,0] - 6 x[4,0,0]
   - 6 x[4,1,0] - 6 x[4,2,0] - 6 x[4,3,0] - 6 x[4,5,0] - 6 x[4,6,0]
   + 6 x[5,4,0] + 6 x[6,4,0] = 0
 R16: 6 x[0,4,1] + 6 x[1,4,1] + 6 x[2,4,1] + 6 x[3,4,1] - 6 x[4,0,1]
   - 6 x[4,1,1] - 6 x[4,2,1] - 6 x[4,3,1] - 6 x[4,5,1] - 6 x[4,6,1]
   + 6 x[5,4,1] + 6 x[6,4,1] = 0
 R17: 6 x[0,5,0] + 6 x[1,5,0] + 6 x[2,5,0] + 6 x[3,5,0] + 6 x[4,5,0]
   - 6 x[5,0,0] - 6 x[5,1,0] - 6 x[5,2,0] - 6 x[5,3,0] - 6 x[5,4,0]
   - 6 x[5,6,0] + 6 x[6,5,0] = 0
 R18: 6 x[0,5,1] + 6 x[1,5,1] + 6 x[2,5,1] + 6 x[3,5,1] + 6 x[4,5,1]
   - 6 x[5,0,1] - 6 x[5,1,1] - 6 x[5,2,1] - 6 x[5,3,1] - 6 x[5,4,1]
   - 6 x[5,6,1] + 6 x[6,5,1] = 0
 R19: x[0,6,0] + x[1,6,0] + x[2,6,0] + x[3,6,0] + x[4,6,0] + x[5,6,0] = 1
 R20: x[0,6,1] + x[1,6,1] + x[2,6,1] + x[3,6,1] + x[4,6,1] + x[5,6,1] = 1
Bounds
Binaries
 x[0,0,0] x[0,0,1] x[0,1,0] x[0,1,1] x[0,2,0] x[0,2,1] x[0,3,0] x[0,3,1]
 x[0,4,0] x[0,4,1] x[0,5,0] x[0,5,1] x[0,6,0] x[0,6,1] x[1,0,0] x[1,0,1]
 x[1,1,0] x[1,1,1] x[1,2,0] x[1,2,1] x[1,3,0] x[1,3,1] x[1,4,0] x[1,4,1]
 x[1,5,0] x[1,5,1] x[1,6,0] x[1,6,1] x[2,0,0] x[2,0,1] x[2,1,0] x[2,1,1]
 x[2,2,0] x[2,2,1] x[2,3,0] x[2,3,1] x[2,4,0] x[2,4,1] x[2,5,0] x[2,5,1]
 x[2,6,0] x[2,6,1] x[3,0,0] x[3,0,1] x[3,1,0] x[3,1,1] x[3,2,0] x[3,2,1]
 x[3,3,0] x[3,3,1] x[3,4,0] x[3,4,1] x[3,5,0] x[3,5,1] x[3,6,0] x[3,6,1]
 x[4,0,0] x[4,0,1] x[4,1,0] x[4,1,1] x[4,2,0] x[4,2,1] x[4,3,0] x[4,3,1]
 x[4,4,0] x[4,4,1] x[4,5,0] x[4,5,1] x[4,6,0] x[4,6,1] x[5,0,0] x[5,0,1]
 x[5,1,0] x[5,1,1] x[5,2,0] x[5,2,1] x[5,3,0] x[5,3,1] x[5,4,0] x[5,4,1]
 x[5,5,0] x[5,5,1] x[5,6,0] x[5,6,1] x[6,0,0] x[6,0,1] x[6,1,0] x[6,1,1]
 x[6,2,0] x[6,2,1] x[6,3,0] x[6,3,1] x[6,4,0] x[6,4,1] x[6,5,0] x[6,5,1]
 x[6,6,0] x[6,6,1]
End
